Route #1: 1 10 24 15 44 7 27 39 6 1
Route #2: 1 21 42 35 41 28 2 32 30 22 29 1
Route #3: 1 46 14 31 5 38 3 4 37 1
Route #4: 1 33 40 8 11 23 12 9 1
Route #5: 1 20 34 16 17 25 43 1
Route #6: 1 13 36 26 45 19 1
Route #7: 1 18 1
cost 1072.7194570747765
